1 -1 2 0
1 3 -4 0
1 -5 3 0
1 -4 -6 0
1 -7 6 0
1 8 9 0
1 8 -10 0
1 -10 -11 0
1 10 12 0
1 13 14 0
1 -15 16 0
1 -17 18 0
1 -19 -3 0
1 20 21 0
1 22 15 0
1 -22 -21 0
1 22 20 0
1 23 15 0
1 23 24 0
1 -24 -25 0
1 -26 13 0
1 -27 28 0
1 -29 -30 0
1 31 -32 0
1 33 -34 0
1 33 -29 0
1 -33 -27 0
1 9 -35 0
1 36 11 0
1 -36 -37 0
1 11 -31 0
1 38 -29 0
1 -35 39 0
1 35 40 0
1 -41 38 0
1 41 -42 0
1 43 44 0
1 43 45 0
1 43 -46 0
1 -47 -48 0
1 49 -42 0
1 -49 -50 0
1 -42 51 0
1 42 46 0
1 52 53 0
1 -52 16 0
1 -52 47 0
1 48 26 0
1 54 -55 0
1 56 -57 0
1 56 47 0
1 58 -59 0
1 -58 60 0
1 -58 -48 0
1 61 -62 0
1 61 -41 0
1 -61 63 0
1 -53 48 0
1 -64 -65 0
1 25 66 0
1 25 21 0
1 25 24 0
1 60 57 0
1 -60 67 0
1 55 -68 0
1 66 69 0
1 -18 -69 0
1 -18 25 0
1 -18 -17 0
1 -18 -68 0
1 18 56 0
1 -57 -19 0
1 70 55 0
1 70 59 0
1 -70 -71 0
1 -72 -73 0
1 72 -74 0
1 75 67 0
1 -71 -75 0
1 71 24 0
1 -74 70 0
1 74 -71 0
1 -67 -75 0
1 73 -76 0
1 77 -78 0
1 77 79 0
1 77 -30 0
1 -80 81 0
1 82 83 0
1 84 -28 0
1 84 85 0
1 -86 -77 0
1 87 84 0
1 -87 -88 0
1 89 90 0
1 -91 -92 0
1 92 -78 0
1 -92 93 0
1 94 -51 0
1 94 95 0
1 -96 -40 0
1 96 -95 0
1 -93 97 0
1 93 98 0
1 -90 99 0
1 90 92 0
1 40 49 0
1 40 34 0
1 40 -42 0
1 -100 -99 0
1 100 -32 0
1 -51 101 0
1 -51 102 0
1 -51 54 0
1 -51 103 0
1 51 50 0
1 50 104 0
1 32 105 0
1 106 32 0
1 106 107 0
1 106 -50 0
1 -101 -40 0
1 34 -51 0
1 -34 108 0
1 -34 95 0
1 -46 68 0
1 -65 -106 0
1 -102 -65 0
1 102 -109 0
1 -110 -111 0
1 110 44 0
1 -110 -105 0
1 -112 113 0
1 112 45 0
1 59 -114 0
1 115 45 0
1 45 112 0
1 116 115 0
1 116 -117 0
1 118 105 0
1 -119 -120 0
1 119 -121 0
1 -122 76 0
1 -122 -115 0
1 122 -123 0
1 -122 -120 0
1 -124 -125 0
1 124 -126 0
1 127 67 0
1 128 -62 0
1 -128 119 0
1 -129 -130 0
1 131 132 0
1 133 76 0
1 133 134 0
1 -135 136 0
1 137 57 0
1 137 -138 0
1 137 -139 0
1 -140 -141 0
1 142 133 0
1 -142 -141 0
1 143 142 0
1 141 -144 0
1 -141 -129 0
1 132 -145 0
1 -132 129 0
1 -146 147 0
1 146 148 0
1 146 149 0
1 149 150 0
1 149 -146 0
1 -151 -152 0
1 153 -154 0
1 153 -155 0
1 -156 85 0
1 156 157 0
1 -156 -158 0
1 156 151 0
1 -159 -149 0
1 148 160 0
1 161 162 0
1 -161 -160 0
1 -158 -163 0
1 -164 165 0
1 164 -155 0
1 -157 166 0
1 85 165 0
1 85 167 0
1 155 -164 0
1 -163 164 0
1 -163 -158 0
1 163 -151 0
1 88 -167 0
1 168 167 0
1 168 79 0
1 -169 170 0
1 169 171 0
1 169 -86 0
1 -167 -157 0
1 -167 -172 0
1 -166 169 0
1 166 88 0
1 173 169 0
1 -170 -174 0
1 98 -175 0
1 98 -176 0
1 99 78 0
1 -103 -177 0
1 103 172 0
1 178 179 0
1 -178 172 0
1 180 169 0
1 -180 -172 0
1 -175 -181 0
1 -179 182 0
1 -183 184 0
1 183 185 0
1 183 -186 0
1 -186 -97 0
1 -187 -188 0
1 -182 189 0
1 182 -186 0
1 190 -191 0
1 -113 102 0
1 -113 112 0
1 107 102 0
1 192 182 0
1 193 194 0
1 -97 -113 0
1 97 -195 0
1 97 109 0
1 -196 113 0
1 -196 -183 0
1 196 195 0
1 -194 111 0
1 194 197 0
1 -198 -199 0
1 198 200 0
1 -198 -118 0
1 117 118 0
1 201 197 0
1 202 -109 0
1 108 109 0
1 -203 -128 0
1 203 -195 0
1 203 200 0
1 -123 201 0
1 -123 204 0
1 -123 124 0
1 205 121 0
1 200 198 0
1 -206 -102 0
1 206 207 0
1 207 208 0
1 -207 -209 0
1 -207 -117 0
1 210 205 0
1 -210 211 0
1 -136 -143 0
1 -136 -205 0
1 -136 -200 0
1 212 -139 0
1 -213 123 0
1 -139 214 0
1 139 -215 0
1 -139 -145 0
1 -216 -125 0
1 -216 133 0
1 -216 -217 0
1 218 -134 0
1 219 -220 0
1 219 221 0
1 -217 220 0
1 -125 222 0
1 223 219 0
1 223 -215 0
1 223 -145 0
1 -144 132 0
1 -144 224 0
1 -225 226 0
1 -225 -227 0
1 -227 228 0
1 134 223 0
1 224 -144 0
1 -224 223 0
1 138 229 0
1 230 231 0
1 -230 -232 0
1 226 141 0
1 233 234 0
1 -235 -236 0
1 -147 -237 0
1 238 -239 0
1 -237 -240 0
1 237 162 0
1 241 -237 0
1 241 242 0
1 -241 158 0
1 243 237 0
1 243 -244 0
1 -240 85 0
1 240 -245 0
1 -240 -161 0
1 246 -247 0
1 -245 -241 0
1 242 162 0
1 160 -148 0
1 248 249 0
1 -248 250 0
1 251 252 0
1 244 253 0
1 249 254 0
1 -249 247 0
1 -249 -255 0
1 249 -256 0
1 -249 248 0
1 176 173 0
1 -176 152 0
1 -257 -170 0
1 -257 -251 0
1 -257 -258 0
1 257 -173 0
1 252 172 0
1 259 -252 0
1 -259 -260 0
1 -261 262 0
1 263 -252 0
1 -263 -174 0
1 -264 265 0
1 -262 -166 0
1 266 -175 0
1 -266 258 0
1 -267 -268 0
1 -258 154 0
1 269 266 0
1 -270 -271 0
1 -272 -269 0
1 273 -274 0
1 -273 -180 0
1 -275 -190 0
1 275 274 0
1 191 -275 0
1 -191 -276 0
1 -274 277 0
1 278 -189 0
1 -279 280 0
1 -279 281 0
1 -268 -277 0
1 189 278 0
1 189 -182 0
1 189 -276 0
1 282 -194 0
1 282 283 0
1 199 284 0
1 285 -278 0
1 285 286 0
1 -287 177 0
1 287 285 0
1 287 276 0
1 283 -275 0
1 -283 -288 0
1 -286 283 0
1 286 175 0
1 289 290 0
1 -289 -276 0
1 -291 292 0
1 291 293 0
1 -204 -294 0
1 -188 295 0
1 -284 -289 0
1 284 -295 0
1 290 296 0
1 290 295 0
1 -211 -292 0
1 -211 284 0
1 -211 -108 0
1 -297 298 0
1 297 -206 0
1 -299 -284 0
1 -294 -193 0
1 -294 -300 0
1 -293 -291 0
1 -293 297 0
1 301 -298 0
1 -301 -209 0
1 -301 -200 0
1 -209 -302 0
1 -209 -303 0
1 209 -304 0
1 -303 305 0
1 303 -306 0
1 -303 -307 0
1 -308 -309 0
1 308 -301 0
1 -310 311 0
1 -310 213 0
1 -310 312 0
1 310 308 0
1 -222 -313 0
1 -222 310 0
1 -314 -315 0
1 -314 -316 0
1 309 225 0
1 -309 -316 0
1 317 -318 0
1 -317 310 0
1 318 -125 0
1 318 319 0
1 318 -215 0
1 318 224 0
1 318 317 0
1 -320 321 0
1 320 -309 0
1 -322 323 0
1 -322 -320 0
1 319 -213 0
1 324 321 0
1 -324 318 0
1 324 -325 0
1 -324 -326 0
1 324 327 0
1 234 -328 0
1 -328 -235 0
1 329 235 0
1 329 -330 0
1 236 -331 0
1 236 330 0
1 332 234 0
1 -332 215 0
1 333 334 0
1 335 -336 0
1 -335 -234 0
1 335 337 0
1 -338 -331 0
1 -338 226 0
1 339 -340 0
1 -339 341 0
1 342 -343 0
1 -331 -344 0
1 331 338 0
1 -330 345 0
1 330 339 0
1 -330 -341 0
1 -341 337 0
1 -341 342 0
1 341 -330 0
1 -346 -337 0
1 -347 -348 0
1 349 -348 0
1 -348 344 0
1 350 349 0
1 343 339 0
1 -343 -349 0
1 254 -351 0
1 -352 -351 0
1 351 -353 0
1 351 354 0
1 351 256 0
1 355 254 0
1 355 256 0
1 -355 -356 0
1 -357 -254 0
1 256 -358 0
1 -256 262 0
1 256 -244 0
1 359 -251 0
1 -265 -255 0
1 265 -360 0
1 -265 355 0
1 265 -267 0
1 -358 -361 0
1 -361 362 0
1 -363 364 0
1 -363 352 0
1 365 242 0
1 271 358 0
1 -271 -366 0
1 -271 264 0
1 367 -255 0
1 -367 368 0
1 -362 -369 0
1 360 -370 0
1 -366 -360 0
1 -366 371 0
1 -255 -372 0
1 255 271 0
1 373 362 0
1 -374 -360 0
1 -374 -369 0
1 -374 -258 0
1 -374 -375 0
1 -371 -360 0
1 371 -375 0
1 -370 368 0
1 -260 -367 0
1 -260 277 0
1 376 -277 0
1 376 -362 0
1 368 377 0
1 -368 -370 0
1 368 -378 0
1 -368 362 0
1 375 -374 0
1 -379 277 0
1 277 376 0
1 380 -381 0
1 -380 281 0
1 380 -382 0
1 381 260 0
1 -381 204 0
1 -383 -370 0
1 -383 -381 0
1 384 379 0
1 384 -383 0
1 384 -385 0
1 -386 377 0
1 -386 -381 0
1 387 388 0
1 387 389 0
1 -387 386 0
1 390 290 0
1 -296 384 0
1 296 391 0
1 385 392 0
1 -393 394 0
1 -382 -395 0
1 -382 390 0
1 -395 382 0
1 -395 396 0
1 397 281 0
1 -295 398 0
1 295 293 0
1 -302 395 0
1 -302 -399 0
1 -400 401 0
1 400 -402 0
1 -400 403 0
1 -404 -313 0
1 404 -302 0
1 -405 295 0
1 405 -385 0
1 -288 -283 0
1 -288 396 0
1 -288 -385 0
1 392 -406 0
1 392 400 0
1 312 -404 0
1 313 -304 0
1 407 405 0
1 -408 409 0
1 410 -408 0
1 -410 -411 0
1 -401 313 0
1 -412 411 0
1 -412 -407 0
1 -412 400 0
1 -413 313 0
1 -413 -412 0
1 -414 415 0
1 416 401 0
1 416 316 0
1 417 415 0
1 417 307 0
1 -300 418 0
1 415 398 0
1 -419 420 0
1 421 -409 0
1 421 317 0
1 -325 307 0
1 325 422 0
1 -423 -424 0
1 423 -425 0
1 -425 -307 0
1 -425 426 0
1 425 300 0
1 425 -422 0
1 336 427 0
1 428 429 0
1 334 427 0
1 -334 -426 0
1 426 -345 0
1 -429 430 0
1 -345 -431 0
1 337 -426 0
1 432 341 0
1 -432 -427 0
1 432 433 0
1 -432 426 0
1 -434 431 0
1 -326 324 0
1 435 -436 0
1 -437 356 0
1 -438 439 0
1 356 -378 0
1 -436 -440 0
1 -436 -441 0
1 436 442 0
1 -443 -439 0
1 444 -445 0
1 -446 447 0
1 -448 -449 0
1 448 -450 0
1 377 390 0
1 377 376 0
1 391 451 0
1 391 452 0
1 453 -439 0
1 -451 452 0
1 372 443 0
1 372 454 0
1 455 456 0
1 389 452 0
1 -389 -455 0
1 -457 458 0
1 -457 451 0
1 -459 460 0
1 -459 -461 0
1 -461 -394 0
1 -462 -455 0
1 -456 -460 0
1 -456 462 0
1 456 463 0
1 -396 -395 0
1 -396 -464 0
1 -396 -465 0
1 396 -466 0
1 -396 281 0
1 464 397 0
1 464 396 0
1 -406 458 0
1 -406 466 0
1 467 -461 0
1 -466 -468 0
1 -466 383 0
1 458 469 0
1 -458 457 0
1 -465 -467 0
1 465 470 0
1 -471 404 0
1 -472 458 0
1 -473 -420 0
1 474 -469 0
1 474 -395 0
1 474 -475 0
1 476 472 0
1 477 478 0
1 -477 468 0
1 477 -479 0
1 475 411 0
1 475 -401 0
1 -475 -480 0
1 -481 -482 0
1 -482 -418 0
1 480 -483 0
1 -480 -420 0
1 484 472 0
1 -484 -483 0
1 -485 -486 0
1 -485 300 0
1 -485 -418 0
1 -418 -487 0
1 488 489 0
1 490 491 0
1 -486 -492 0
1 491 492 0
1 -491 -493 0
1 -491 -494 0
1 -487 -495 0
1 -496 -488 0
1 496 495 0
1 496 497 0
1 430 486 0
1 494 498 0
1 -494 -424 0
1 -498 -300 0
1 499 430 0
1 -450 -500 0
1 501 -500 0
1 501 448 0
1 -454 440 0
1 -454 445 0
1 440 501 0
1 -440 -502 0
1 502 -454 0
1 503 -451 0
1 -503 504 0
1 505 -445 0
1 505 -503 0
1 -506 -507 0
1 507 460 0
1 507 -508 0
1 -445 509 0
1 445 510 0
1 -445 -511 0
1 447 -510 0
1 460 -512 0
1 513 -509 0
1 -513 -514 0
1 509 469 0
1 -509 514 0
1 515 -463 0
1 516 460 0
1 -517 -518 0
1 517 519 0
1 -468 515 0
1 520 521 0
1 520 466 0
1 520 476 0
1 514 522 0
1 514 -459 0
1 514 -523 0
1 524 525 0
1 -524 526 0
1 -524 -520 0
1 522 -527 0
1 523 527 0
1 -528 480 0
1 483 -529 0
1 483 -530 0
1 531 532 0
1 531 -528 0
1 533 534 0
1 470 -535 0
1 -470 525 0
1 532 -531 0
1 532 -536 0
1 497 537 0
1 538 495 0
1 536 -497 0
1 -539 -478 0
1 539 497 0
1 478 477 0
1 -540 541 0
1 540 -542 0
1 -543 -544 0
1 545 -516 0
1 -546 530 0
1 541 -540 0
1 -547 -542 0
1 -547 -546 0
1 -547 544 0
1 547 511 0
1 519 -548 0
1 -519 546 0
1 -519 524 0
1 549 -550 0
1 549 511 0
1 530 -548 0
1 -530 511 0
1 -548 507 0
1 548 -519 0
1 511 -519 0
1 535 -527 0
1 -535 -548 0
1 525 -527 0
1 525 535 0
1 525 -497 0
1 -551 -552 0
1 551 553 0
1 551 511 0
1 -554 511 0
1 -553 525 0
1 553 555 0
1 555 -530 0
1 552 -530 0
